(set-logic QF_S)
(set-option :strings-exp true)
(set-option :produce-models true)
(declare-fun sigmaStar_0 () String)
(declare-fun literal_6 () String)
(assert (= literal_6 "\x5b\x5d\x20\x74\x65\x61\x63\x68\x65\x72\x67\x72\x61\x64\x65\x66\x6f\x72\x61\x73\x73\x65\x73\x73\x6d\x65\x6e\x74\x2e\x5c\x6e"))
(assert (str.in.re literal_6 (re.++ (re.* re.allchar) (re.++ (str.to.re "\x5c\x3c\x53\x43\x52\x49\x50\x54") (re.* re.allchar)))))
(check-sat)
(get-model)
